33D32945 STP File, STP Format Version 1.0

SECTION Comment 
Name "hc7p" 
Creator ""  
Remark "prize version of Rosseti et al. hypercube graphs"  
END 

SECTION Graph
Nodes 128
Edges 448
E 1 65 100.000000
E 1 33 101.000000
E 1 17 108.000000
E 1 9 105.000000
E 1 5 105.000000
E 1 3 102.000000
E 1 2 100.000000
E 2 66 107.000000
E 2 34 107.000000
E 2 18 110.000000
E 2 10 104.000000
E 2 6 105.000000
E 2 4 109.000000
E 3 67 100.000000
E 3 35 100.000000
E 3 19 105.000000
E 3 11 107.000000
E 3 7 100.000000
E 3 4 104.000000
E 4 68 100.000000
E 4 36 104.000000
E 4 20 107.000000
E 4 12 106.000000
E 4 8 110.000000
E 5 69 109.000000
E 5 37 105.000000
E 5 21 101.000000
E 5 13 107.000000
E 5 7 104.000000
E 5 6 107.000000
E 6 70 110.000000
E 6 38 108.000000
E 6 22 102.000000
E 6 14 100.000000
E 6 8 108.000000
E 7 71 103.000000
E 7 39 106.000000
E 7 23 108.000000
E 7 15 110.000000
E 7 8 104.000000
E 8 72 102.000000
E 8 40 110.000000
E 8 24 107.000000
E 8 16 108.000000
E 9 73 107.000000
E 9 41 100.000000
E 9 25 106.000000
E 9 13 109.000000
E 9 11 102.000000
E 9 10 104.000000
E 10 74 108.000000
E 10 42 105.000000
E 10 26 102.000000
E 10 14 103.000000
E 10 12 103.000000
E 11 75 101.000000
E 11 43 105.000000
E 11 27 109.000000
E 11 15 110.000000
E 11 12 100.000000
E 12 76 109.000000
E 12 44 105.000000
E 12 28 105.000000
E 12 16 103.000000
E 13 77 110.000000
E 13 45 105.000000
E 13 29 102.000000
E 13 15 100.000000
E 13 14 110.000000
E 14 78 100.000000
E 14 46 105.000000
E 14 30 104.000000
E 14 16 103.000000
E 15 79 110.000000
E 15 47 105.000000
E 15 31 105.000000
E 15 16 110.000000
E 16 80 100.000000
E 16 48 108.000000
E 16 32 108.000000
E 17 81 109.000000
E 17 49 101.000000
E 17 25 100.000000
E 17 21 107.000000
E 17 19 109.000000
E 17 18 106.000000
E 18 82 108.000000
E 18 50 107.000000
E 18 26 110.000000
E 18 22 109.000000
E 18 20 102.000000
E 19 83 103.000000
E 19 51 103.000000
E 19 27 105.000000
E 19 23 106.000000
E 19 20 109.000000
E 20 84 104.000000
E 20 52 109.000000
E 20 28 102.000000
E 20 24 104.000000
E 21 85 105.000000
E 21 53 105.000000
E 21 29 103.000000
E 21 23 101.000000
E 21 22 101.000000
E 22 86 106.000000
E 22 54 108.000000
E 22 30 100.000000
E 22 24 105.000000
E 23 87 105.000000
E 23 55 110.000000
E 23 31 108.000000
E 23 24 106.000000
E 24 88 109.000000
E 24 56 106.000000
E 24 32 109.000000
E 25 89 101.000000
E 25 57 102.000000
E 25 29 107.000000
E 25 27 101.000000
E 25 26 101.000000
E 26 90 103.000000
E 26 58 100.000000
E 26 30 104.000000
E 26 28 100.000000
E 27 91 107.000000
E 27 59 110.000000
E 27 31 102.000000
E 27 28 101.000000
E 28 92 103.000000
E 28 60 109.000000
E 28 32 107.000000
E 29 93 101.000000
E 29 61 107.000000
E 29 31 104.000000
E 29 30 104.000000
E 30 94 105.000000
E 30 62 101.000000
E 30 32 106.000000
E 31 95 109.000000
E 31 63 106.000000
E 31 32 110.000000
E 32 96 106.000000
E 32 64 101.000000
E 33 97 110.000000
E 33 49 104.000000
E 33 41 101.000000
E 33 37 106.000000
E 33 35 102.000000
E 33 34 105.000000
E 34 98 105.000000
E 34 50 110.000000
E 34 42 101.000000
E 34 38 102.000000
E 34 36 103.000000
E 35 99 106.000000
E 35 51 101.000000
E 35 43 107.000000
E 35 39 106.000000
E 35 36 108.000000
E 36 100 102.000000
E 36 52 105.000000
E 36 44 104.000000
E 36 40 102.000000
E 37 101 100.000000
E 37 53 109.000000
E 37 45 104.000000
E 37 39 101.000000
E 37 38 110.000000
E 38 102 104.000000
E 38 54 101.000000
E 38 46 109.000000
E 38 40 101.000000
E 39 103 101.000000
E 39 55 100.000000
E 39 47 104.000000
E 39 40 102.000000
E 40 104 101.000000
E 40 56 108.000000
E 40 48 105.000000
E 41 105 103.000000
E 41 57 104.000000
E 41 45 108.000000
E 41 43 110.000000
E 41 42 107.000000
E 42 106 102.000000
E 42 58 107.000000
E 42 46 109.000000
E 42 44 102.000000
E 43 107 109.000000
E 43 59 105.000000
E 43 47 105.000000
E 43 44 106.000000
E 44 108 108.000000
E 44 60 108.000000
E 44 48 105.000000
E 45 109 110.000000
E 45 61 106.000000
E 45 47 104.000000
E 45 46 109.000000
E 46 110 107.000000
E 46 62 107.000000
E 46 48 110.000000
E 47 111 110.000000
E 47 63 109.000000
E 47 48 103.000000
E 48 112 105.000000
E 48 64 105.000000
E 49 113 101.000000
E 49 57 104.000000
E 49 53 106.000000
E 49 51 109.000000
E 49 50 104.000000
E 50 114 108.000000
E 50 58 109.000000
E 50 54 107.000000
E 50 52 108.000000
E 51 115 107.000000
E 51 59 108.000000
E 51 55 100.000000
E 51 52 109.000000
E 52 116 105.000000
E 52 60 105.000000
E 52 56 100.000000
E 53 117 107.000000
E 53 61 105.000000
E 53 55 107.000000
E 53 54 107.000000
E 54 118 102.000000
E 54 62 110.000000
E 54 56 109.000000
E 55 119 109.000000
E 55 63 105.000000
E 55 56 101.000000
E 56 120 104.000000
E 56 64 110.000000
E 57 121 102.000000
E 57 61 104.000000
E 57 59 103.000000
E 57 58 105.000000
E 58 122 109.000000
E 58 62 104.000000
E 58 60 105.000000
E 59 123 108.000000
E 59 63 104.000000
E 59 60 102.000000
E 60 124 110.000000
E 60 64 101.000000
E 61 125 106.000000
E 61 63 106.000000
E 61 62 100.000000
E 62 126 100.000000
E 62 64 108.000000
E 63 127 108.000000
E 63 64 103.000000
E 64 128 104.000000
E 65 97 107.000000
E 65 81 107.000000
E 65 73 102.000000
E 65 69 109.000000
E 65 67 107.000000
E 65 66 109.000000
E 66 98 101.000000
E 66 82 100.000000
E 66 74 108.000000
E 66 70 106.000000
E 66 68 102.000000
E 67 99 102.000000
E 67 83 100.000000
E 67 75 104.000000
E 67 71 110.000000
E 67 68 110.000000
E 68 100 104.000000
E 68 84 102.000000
E 68 76 107.000000
E 68 72 103.000000
E 69 101 108.000000
E 69 85 108.000000
E 69 77 104.000000
E 69 71 103.000000
E 69 70 102.000000
E 70 102 100.000000
E 70 86 102.000000
E 70 78 110.000000
E 70 72 102.000000
E 71 103 109.000000
E 71 87 101.000000
E 71 79 104.000000
E 71 72 106.000000
E 72 104 101.000000
E 72 88 109.000000
E 72 80 101.000000
E 73 105 110.000000
E 73 89 102.000000
E 73 77 102.000000
E 73 75 101.000000
E 73 74 102.000000
E 74 106 106.000000
E 74 90 107.000000
E 74 78 108.000000
E 74 76 107.000000
E 75 107 108.000000
E 75 91 107.000000
E 75 79 106.000000
E 75 76 100.000000
E 76 108 106.000000
E 76 92 102.000000
E 76 80 103.000000
E 77 109 107.000000
E 77 93 101.000000
E 77 79 108.000000
E 77 78 105.000000
E 78 110 106.000000
E 78 94 106.000000
E 78 80 103.000000
E 79 111 107.000000
E 79 95 101.000000
E 79 80 101.000000
E 80 112 105.000000
E 80 96 109.000000
E 81 113 108.000000
E 81 89 106.000000
E 81 85 108.000000
E 81 83 103.000000
E 81 82 101.000000
E 82 114 105.000000
E 82 90 103.000000
E 82 86 106.000000
E 82 84 105.000000
E 83 115 104.000000
E 83 91 102.000000
E 83 87 104.000000
E 83 84 104.000000
E 84 116 104.000000
E 84 92 105.000000
E 84 88 104.000000
E 85 117 103.000000
E 85 93 100.000000
E 85 87 104.000000
E 85 86 102.000000
E 86 118 107.000000
E 86 94 107.000000
E 86 88 105.000000
E 87 119 108.000000
E 87 95 107.000000
E 87 88 110.000000
E 88 120 105.000000
E 88 96 110.000000
E 89 121 103.000000
E 89 93 105.000000
E 89 91 105.000000
E 89 90 107.000000
E 90 122 104.000000
E 90 94 106.000000
E 90 92 110.000000
E 91 123 101.000000
E 91 95 107.000000
E 91 92 103.000000
E 92 124 105.000000
E 92 96 105.000000
E 93 125 109.000000
E 93 95 100.000000
E 93 94 103.000000
E 94 126 107.000000
E 94 96 106.000000
E 95 127 110.000000
E 95 96 102.000000
E 96 128 110.000000
E 97 113 102.000000
E 97 105 109.000000
E 97 101 107.000000
E 97 99 105.000000
E 97 98 108.000000
E 98 114 100.000000
E 98 106 101.000000
E 98 102 107.000000
E 98 100 107.000000
E 99 115 104.000000
E 99 107 106.000000
E 99 103 108.000000
E 99 100 110.000000
E 100 116 107.000000
E 100 108 103.000000
E 100 104 108.000000
E 101 117 101.000000
E 101 109 100.000000
E 101 103 105.000000
E 101 102 100.000000
E 102 118 101.000000
E 102 110 109.000000
E 102 104 108.000000
E 103 119 108.000000
E 103 111 104.000000
E 103 104 100.000000
E 104 120 106.000000
E 104 112 105.000000
E 105 121 100.000000
E 105 109 105.000000
E 105 107 104.000000
E 105 106 102.000000
E 106 122 104.000000
E 106 110 106.000000
E 106 108 107.000000
E 107 123 107.000000
E 107 111 105.000000
E 107 108 103.000000
E 108 124 108.000000
E 108 112 104.000000
E 109 125 107.000000
E 109 111 103.000000
E 109 110 100.000000
E 110 126 101.000000
E 110 112 105.000000
E 111 127 108.000000
E 111 112 102.000000
E 112 128 100.000000
E 113 121 100.000000
E 113 117 101.000000
E 113 115 107.000000
E 113 114 103.000000
E 114 122 100.000000
E 114 118 105.000000
E 114 116 105.000000
E 115 123 105.000000
E 115 119 104.000000
E 115 116 101.000000
E 116 124 103.000000
E 116 120 109.000000
E 117 125 107.000000
E 117 119 106.000000
E 117 118 107.000000
E 118 126 103.000000
E 118 120 100.000000
E 119 127 110.000000
E 119 120 105.000000
E 120 128 100.000000
E 121 125 109.000000
E 121 123 100.000000
E 121 122 104.000000
E 122 126 105.000000
E 122 124 106.000000
E 123 127 108.000000
E 123 124 107.000000
E 124 128 105.000000
E 125 127 100.000000
E 125 126 101.000000
E 126 128 110.000000
E 127 128 102.000000
END

SECTION Terminals
Terminals 128
TP 1 169
TP 2 0
TP 3 0
TP 4 124
TP 5 0
TP 6 196
TP 7 196
TP 8 0
TP 9 0
TP 10 132
TP 11 128
TP 12 0
TP 13 186
TP 14 0
TP 15 0
TP 16 121
TP 17 0
TP 18 139
TP 19 106
TP 20 0
TP 21 127
TP 22 0
TP 23 0
TP 24 144
TP 25 137
TP 26 0
TP 27 0
TP 28 172
TP 29 0
TP 30 111
TP 31 115
TP 32 0
TP 33 0
TP 34 160
TP 35 168
TP 36 0
TP 37 157
TP 38 0
TP 39 0
TP 40 198
TP 41 130
TP 42 0
TP 43 0
TP 44 196
TP 45 0
TP 46 136
TP 47 133
TP 48 0
TP 49 182
TP 50 0
TP 51 0
TP 52 176
TP 53 0
TP 54 106
TP 55 107
TP 56 0
TP 57 0
TP 58 126
TP 59 139
TP 60 0
TP 61 199
TP 62 0
TP 63 0
TP 64 154
TP 65 0
TP 66 103
TP 67 101
TP 68 0
TP 69 195
TP 70 0
TP 71 0
TP 72 172
TP 73 106
TP 74 0
TP 75 0
TP 76 176
TP 77 0
TP 78 145
TP 79 197
TP 80 0
TP 81 163
TP 82 0
TP 83 0
TP 84 133
TP 85 0
TP 86 138
TP 87 144
TP 88 0
TP 89 0
TP 90 125
TP 91 198
TP 92 0
TP 93 193
TP 94 0
TP 95 0
TP 96 105
TP 97 122
TP 98 0
TP 99 0
TP 100 174
TP 101 0
TP 102 112
TP 103 143
TP 104 0
TP 105 0
TP 106 185
TP 107 121
TP 108 0
TP 109 149
TP 110 0
TP 111 0
TP 112 158
TP 113 0
TP 114 151
TP 115 146
TP 116 0
TP 117 147
TP 118 0
TP 119 0
TP 120 138
TP 121 154
TP 122 0
TP 123 0
TP 124 102
TP 125 0
TP 126 127
TP 127 157
TP 128 0
END

EOF
